Site = {1, 2, 3, 4, 5, 6};
hotel = 6;
distance = [| 10, 25, 6, 17, 33, 12
            | 8, 14, 20, 22, 30, 11
            | 18, 7, 19, 28, 35, 9
            | 26, 15, 24, 42, 31, 16
            | 23, 13, 21, 36, 29, 27
            | 5, 40, 2, 37, 4, 38 |];

durationOfVisit = [5, 12, 8, 16, 10, 6];
siteOpens = [7, 11, 3, 8, 29, 1];
siteCloses = [65, 75, 68, 72, 73, 198];

num_passengers = 5;
site_score =   [| 25, 72, 10, 60, 3, 88
                | 44, 23, 87, 42, 5, 99
                | 31, 12, 50, 2, 93, 38
                | 2, 68, 14, 29, 61, 16
                | 20, 7, 77, 80, 54, 26 |];
preferred_n_sites = [4, 2, 6, 3, 5];
preferred_travel_time = [39, 72, 63, 18, 55];
preference_weights =   [| 10, 15, 3
                        | 9, 16, 19
                        | 7, 5, 4
                        | 3, 2, 14
                        | 8, 3, 6 |];
